Configuration:
CPXPARAM_Advance=1
CPXPARAM_Barrier_Algorithm=0
CPXPARAM_Barrier_ColNonzeros=0
CPXPARAM_Barrier_Crossover=0
CPXPARAM_Barrier_Limits_Corrections=-1
CPXPARAM_Barrier_Ordering=0
CPXPARAM_Barrier_StartAlg=1
CPXPARAM_Emphasis_MIP=5
CPXPARAM_Emphasis_Memory=0
CPXPARAM_Emphasis_Numerical=0
CPXPARAM_Feasopt_Mode=0
CPXPARAM_LPMethod=0
CPXPARAM_MIP_Cuts_Cliques=0
CPXPARAM_MIP_Cuts_Covers=0
CPXPARAM_MIP_Cuts_Disjunctive=3
CPXPARAM_MIP_Cuts_FlowCovers=2
CPXPARAM_MIP_Cuts_GUBCovers=0
CPXPARAM_MIP_Cuts_Gomory=0
CPXPARAM_MIP_Cuts_Implied=1
CPXPARAM_MIP_Cuts_MIRCut=1
CPXPARAM_MIP_Cuts_PathCut=2
CPXPARAM_MIP_Limits_AggForCut=3
CPXPARAM_MIP_Limits_CutPasses=0
CPXPARAM_MIP_Limits_CutsFactor=-1
CPXPARAM_MIP_Limits_GomoryCand=150
CPXPARAM_MIP_Limits_GomoryPass=0
CPXPARAM_MIP_Limits_Nodes=9223372036800000000
CPXPARAM_MIP_Limits_ProbeTime=1e+75
CPXPARAM_MIP_Limits_RepairTries=0
CPXPARAM_MIP_Limits_StrongCand=10
CPXPARAM_MIP_Limits_StrongIt=0
CPXPARAM_MIP_OrderType=0
CPXPARAM_MIP_Strategy_BBInterval=7
CPXPARAM_MIP_Strategy_Branch=0
CPXPARAM_MIP_Strategy_Dive=0
CPXPARAM_MIP_Strategy_File=1
CPXPARAM_MIP_Strategy_HeuristicFreq=0
CPXPARAM_MIP_Strategy_LBHeur=0
CPXPARAM_MIP_Strategy_NodeSelect=1
CPXPARAM_MIP_Strategy_Order=1
CPXPARAM_MIP_Strategy_PresolveNode=0
CPXPARAM_MIP_Strategy_Probe=0
CPXPARAM_MIP_Strategy_RINSHeur=0
CPXPARAM_MIP_Strategy_StartAlgorithm=0
CPXPARAM_MIP_Strategy_SubAlgorithm=3
CPXPARAM_MIP_Strategy_VariableSelect=0
CPXPARAM_Network_NetFind=2
CPXPARAM_Network_Pricing=0
CPXPARAM_Parallel=1
CPXPARAM_Preprocessing_Aggregator=-1
CPXPARAM_Preprocessing_BoundStrength=-1
CPXPARAM_Preprocessing_CoeffReduce=-1
CPXPARAM_Preprocessing_Dependency=-1
CPXPARAM_Preprocessing_Dual=0
CPXPARAM_Preprocessing_Fill=10
CPXPARAM_Preprocessing_NumPass=-1
CPXPARAM_Preprocessing_Presolve=1
CPXPARAM_Preprocessing_QPMakePSD=1
CPXPARAM_Preprocessing_Reduce=3
CPXPARAM_Preprocessing_Relax=-1
CPXPARAM_Preprocessing_RepeatPresolve=-1
CPXPARAM_Preprocessing_Symmetry=0
CPXPARAM_Read_Scale=0
CPXPARAM_Sifting_Algorithm=0
CPXPARAM_Simplex_Crash=1
CPXPARAM_Simplex_DGradient=0
CPXPARAM_Simplex_Limits_Perturbation=0
CPXPARAM_Simplex_Limits_Singularity=10
CPXPARAM_Simplex_PGradient=0
CPXPARAM_Simplex_Pricing=0
CPXPARAM_Simplex_Refactor=0
ObjectiveValue=57.07
Gap=57.07
UpperBound=2.16658e+06
LowerBound=930190
SolverRuntimeSeconds=5.00474
SolverTerminationStatus=Normal
TimeEvaluated=156
MipStartUsed=0
ProducedMipStart=0
EndConfiguration
Configuration:
CPXPARAM_Advance=1
CPXPARAM_Barrier_Algorithm=0
CPXPARAM_Barrier_ColNonzeros=0
CPXPARAM_Barrier_Crossover=0
CPXPARAM_Barrier_Limits_Corrections=-1
CPXPARAM_Barrier_Ordering=0
CPXPARAM_Barrier_StartAlg=1
CPXPARAM_Emphasis_MIP=5
CPXPARAM_Emphasis_Memory=0
CPXPARAM_Emphasis_Numerical=0
CPXPARAM_Feasopt_Mode=0
CPXPARAM_LPMethod=0
CPXPARAM_MIP_Cuts_Cliques=0
CPXPARAM_MIP_Cuts_Covers=0
CPXPARAM_MIP_Cuts_Disjunctive=3
CPXPARAM_MIP_Cuts_FlowCovers=2
CPXPARAM_MIP_Cuts_GUBCovers=0
CPXPARAM_MIP_Cuts_Gomory=0
CPXPARAM_MIP_Cuts_Implied=1
CPXPARAM_MIP_Cuts_MIRCut=1
CPXPARAM_MIP_Cuts_PathCut=2
CPXPARAM_MIP_Limits_AggForCut=3
CPXPARAM_MIP_Limits_CutPasses=0
CPXPARAM_MIP_Limits_CutsFactor=-1
CPXPARAM_MIP_Limits_GomoryCand=150
CPXPARAM_MIP_Limits_GomoryPass=0
CPXPARAM_MIP_Limits_Nodes=9223372036800000000
CPXPARAM_MIP_Limits_ProbeTime=1e+75
CPXPARAM_MIP_Limits_RepairTries=0
CPXPARAM_MIP_Limits_StrongCand=10
CPXPARAM_MIP_Limits_StrongIt=0
CPXPARAM_MIP_OrderType=0
CPXPARAM_MIP_Strategy_BBInterval=7
CPXPARAM_MIP_Strategy_Branch=0
CPXPARAM_MIP_Strategy_Dive=0
CPXPARAM_MIP_Strategy_File=1
CPXPARAM_MIP_Strategy_HeuristicFreq=0
CPXPARAM_MIP_Strategy_LBHeur=0
CPXPARAM_MIP_Strategy_NodeSelect=1
CPXPARAM_MIP_Strategy_Order=1
CPXPARAM_MIP_Strategy_PresolveNode=0
CPXPARAM_MIP_Strategy_Probe=0
CPXPARAM_MIP_Strategy_RINSHeur=0
CPXPARAM_MIP_Strategy_StartAlgorithm=0
CPXPARAM_MIP_Strategy_SubAlgorithm=3
CPXPARAM_MIP_Strategy_VariableSelect=0
CPXPARAM_Network_NetFind=2
CPXPARAM_Network_Pricing=0
CPXPARAM_Parallel=1
CPXPARAM_Preprocessing_Aggregator=-1
CPXPARAM_Preprocessing_BoundStrength=-1
CPXPARAM_Preprocessing_CoeffReduce=-1
CPXPARAM_Preprocessing_Dependency=-1
CPXPARAM_Preprocessing_Dual=0
CPXPARAM_Preprocessing_Fill=10
CPXPARAM_Preprocessing_NumPass=-1
CPXPARAM_Preprocessing_Presolve=1
CPXPARAM_Preprocessing_QPMakePSD=1
CPXPARAM_Preprocessing_Reduce=3
CPXPARAM_Preprocessing_Relax=-1
CPXPARAM_Preprocessing_RepeatPresolve=-1
CPXPARAM_Preprocessing_Symmetry=4
CPXPARAM_Read_Scale=0
CPXPARAM_Sifting_Algorithm=0
CPXPARAM_Simplex_Crash=1
CPXPARAM_Simplex_DGradient=0
CPXPARAM_Simplex_Limits_Perturbation=0
CPXPARAM_Simplex_Limits_Singularity=10
CPXPARAM_Simplex_PGradient=0
CPXPARAM_Simplex_Pricing=0
CPXPARAM_Simplex_Refactor=0
ObjectiveValue=57.07
Gap=57.07
UpperBound=2.16658e+06
LowerBound=930190
SolverRuntimeSeconds=5.0038
SolverTerminationStatus=Normal
TimeEvaluated=161
MipStartUsed=0
ProducedMipStart=0
EndConfiguration
Configuration:
CPXPARAM_Advance=1
CPXPARAM_Barrier_Algorithm=0
CPXPARAM_Barrier_ColNonzeros=0
CPXPARAM_Barrier_Crossover=0
CPXPARAM_Barrier_Limits_Corrections=-1
CPXPARAM_Barrier_Ordering=0
CPXPARAM_Barrier_StartAlg=1
CPXPARAM_Emphasis_MIP=5
CPXPARAM_Emphasis_Memory=0
CPXPARAM_Emphasis_Numerical=0
CPXPARAM_Feasopt_Mode=0
CPXPARAM_LPMethod=0
CPXPARAM_MIP_Cuts_Cliques=0
CPXPARAM_MIP_Cuts_Covers=0
CPXPARAM_MIP_Cuts_Disjunctive=3
CPXPARAM_MIP_Cuts_FlowCovers=2
CPXPARAM_MIP_Cuts_GUBCovers=0
CPXPARAM_MIP_Cuts_Gomory=0
CPXPARAM_MIP_Cuts_Implied=1
CPXPARAM_MIP_Cuts_MIRCut=1
CPXPARAM_MIP_Cuts_PathCut=2
CPXPARAM_MIP_Limits_AggForCut=3
CPXPARAM_MIP_Limits_CutPasses=0
CPXPARAM_MIP_Limits_CutsFactor=-1
CPXPARAM_MIP_Limits_GomoryCand=150
CPXPARAM_MIP_Limits_GomoryPass=0
CPXPARAM_MIP_Limits_Nodes=9223372036800000000
CPXPARAM_MIP_Limits_ProbeTime=1e+75
CPXPARAM_MIP_Limits_RepairTries=0
CPXPARAM_MIP_Limits_StrongCand=10
CPXPARAM_MIP_Limits_StrongIt=0
CPXPARAM_MIP_OrderType=0
CPXPARAM_MIP_Strategy_BBInterval=7
CPXPARAM_MIP_Strategy_Branch=0
CPXPARAM_MIP_Strategy_Dive=0
CPXPARAM_MIP_Strategy_File=1
CPXPARAM_MIP_Strategy_HeuristicFreq=0
CPXPARAM_MIP_Strategy_LBHeur=0
CPXPARAM_MIP_Strategy_NodeSelect=1
CPXPARAM_MIP_Strategy_Order=1
CPXPARAM_MIP_Strategy_PresolveNode=0
CPXPARAM_MIP_Strategy_Probe=0
CPXPARAM_MIP_Strategy_RINSHeur=0
CPXPARAM_MIP_Strategy_StartAlgorithm=0
CPXPARAM_MIP_Strategy_SubAlgorithm=3
CPXPARAM_MIP_Strategy_VariableSelect=0
CPXPARAM_Network_NetFind=2
CPXPARAM_Network_Pricing=0
CPXPARAM_Parallel=1
CPXPARAM_Preprocessing_Aggregator=-1
CPXPARAM_Preprocessing_BoundStrength=-1
CPXPARAM_Preprocessing_CoeffReduce=-1
CPXPARAM_Preprocessing_Dependency=-1
CPXPARAM_Preprocessing_Dual=0
CPXPARAM_Preprocessing_Fill=10
CPXPARAM_Preprocessing_NumPass=-1
CPXPARAM_Preprocessing_Presolve=1
CPXPARAM_Preprocessing_QPMakePSD=1
CPXPARAM_Preprocessing_Reduce=3
CPXPARAM_Preprocessing_Relax=-1
CPXPARAM_Preprocessing_RepeatPresolve=-1
CPXPARAM_Preprocessing_Symmetry=5
CPXPARAM_Read_Scale=0
CPXPARAM_Sifting_Algorithm=0
CPXPARAM_Simplex_Crash=1
CPXPARAM_Simplex_DGradient=0
CPXPARAM_Simplex_Limits_Perturbation=0
CPXPARAM_Simplex_Limits_Singularity=10
CPXPARAM_Simplex_PGradient=0
CPXPARAM_Simplex_Pricing=0
CPXPARAM_Simplex_Refactor=0
ObjectiveValue=57.07
Gap=57.07
UpperBound=2.16658e+06
LowerBound=930190
SolverRuntimeSeconds=5.00366
SolverTerminationStatus=Normal
TimeEvaluated=166
MipStartUsed=0
ProducedMipStart=0
EndConfiguration
Configuration:
CPXPARAM_Advance=1
CPXPARAM_Barrier_Algorithm=0
CPXPARAM_Barrier_ColNonzeros=0
CPXPARAM_Barrier_Crossover=0
CPXPARAM_Barrier_Limits_Corrections=-1
CPXPARAM_Barrier_Ordering=0
CPXPARAM_Barrier_StartAlg=1
CPXPARAM_Emphasis_MIP=5
CPXPARAM_Emphasis_Memory=0
CPXPARAM_Emphasis_Numerical=0
CPXPARAM_Feasopt_Mode=0
CPXPARAM_LPMethod=0
CPXPARAM_MIP_Cuts_Cliques=0
CPXPARAM_MIP_Cuts_Covers=0
CPXPARAM_MIP_Cuts_Disjunctive=3
CPXPARAM_MIP_Cuts_FlowCovers=2
CPXPARAM_MIP_Cuts_GUBCovers=0
CPXPARAM_MIP_Cuts_Gomory=0
CPXPARAM_MIP_Cuts_Implied=1
CPXPARAM_MIP_Cuts_MIRCut=1
CPXPARAM_MIP_Cuts_PathCut=2
CPXPARAM_MIP_Limits_AggForCut=3
CPXPARAM_MIP_Limits_CutPasses=0
CPXPARAM_MIP_Limits_CutsFactor=-1
CPXPARAM_MIP_Limits_GomoryCand=150
CPXPARAM_MIP_Limits_GomoryPass=0
CPXPARAM_MIP_Limits_Nodes=9223372036800000000
CPXPARAM_MIP_Limits_ProbeTime=1e+75
CPXPARAM_MIP_Limits_RepairTries=0
CPXPARAM_MIP_Limits_StrongCand=10
CPXPARAM_MIP_Limits_StrongIt=0
CPXPARAM_MIP_OrderType=0
CPXPARAM_MIP_Strategy_BBInterval=7
CPXPARAM_MIP_Strategy_Branch=0
CPXPARAM_MIP_Strategy_Dive=0
CPXPARAM_MIP_Strategy_File=1
CPXPARAM_MIP_Strategy_HeuristicFreq=0
CPXPARAM_MIP_Strategy_LBHeur=0
CPXPARAM_MIP_Strategy_NodeSelect=1
CPXPARAM_MIP_Strategy_Order=1
CPXPARAM_MIP_Strategy_PresolveNode=0
CPXPARAM_MIP_Strategy_Probe=0
CPXPARAM_MIP_Strategy_RINSHeur=0
CPXPARAM_MIP_Strategy_StartAlgorithm=0
CPXPARAM_MIP_Strategy_SubAlgorithm=0
CPXPARAM_MIP_Strategy_VariableSelect=0
CPXPARAM_Network_NetFind=2
CPXPARAM_Network_Pricing=0
CPXPARAM_Parallel=1
CPXPARAM_Preprocessing_Aggregator=-1
CPXPARAM_Preprocessing_BoundStrength=-1
CPXPARAM_Preprocessing_CoeffReduce=-1
CPXPARAM_Preprocessing_Dependency=-1
CPXPARAM_Preprocessing_Dual=0
CPXPARAM_Preprocessing_Fill=10
CPXPARAM_Preprocessing_NumPass=-1
CPXPARAM_Preprocessing_Presolve=1
CPXPARAM_Preprocessing_QPMakePSD=1
CPXPARAM_Preprocessing_Reduce=3
CPXPARAM_Preprocessing_Relax=-1
CPXPARAM_Preprocessing_RepeatPresolve=-1
CPXPARAM_Preprocessing_Symmetry=0
CPXPARAM_Read_Scale=0
CPXPARAM_Sifting_Algorithm=0
CPXPARAM_Simplex_Crash=1
CPXPARAM_Simplex_DGradient=0
CPXPARAM_Simplex_Limits_Perturbation=0
CPXPARAM_Simplex_Limits_Singularity=10
CPXPARAM_Simplex_PGradient=0
CPXPARAM_Simplex_Pricing=0
CPXPARAM_Simplex_Refactor=0
ObjectiveValue=53.7
Gap=53.7
UpperBound=1.9305e+06
LowerBound=893870
SolverRuntimeSeconds=5.01283
SolverTerminationStatus=Normal
TimeEvaluated=171
MipStartUsed=0
ProducedMipStart=0
EndConfiguration
Configuration:
CPXPARAM_Advance=1
CPXPARAM_Barrier_Algorithm=0
CPXPARAM_Barrier_ColNonzeros=0
CPXPARAM_Barrier_Crossover=0
CPXPARAM_Barrier_Limits_Corrections=-1
CPXPARAM_Barrier_Ordering=0
CPXPARAM_Barrier_StartAlg=1
CPXPARAM_Emphasis_MIP=5
CPXPARAM_Emphasis_Memory=0
CPXPARAM_Emphasis_Numerical=0
CPXPARAM_Feasopt_Mode=0
CPXPARAM_LPMethod=0
CPXPARAM_MIP_Cuts_Cliques=0
CPXPARAM_MIP_Cuts_Covers=0
CPXPARAM_MIP_Cuts_Disjunctive=3
CPXPARAM_MIP_Cuts_FlowCovers=2
CPXPARAM_MIP_Cuts_GUBCovers=0
CPXPARAM_MIP_Cuts_Gomory=0
CPXPARAM_MIP_Cuts_Implied=1
CPXPARAM_MIP_Cuts_MIRCut=1
CPXPARAM_MIP_Cuts_PathCut=2
CPXPARAM_MIP_Limits_AggForCut=3
CPXPARAM_MIP_Limits_CutPasses=0
CPXPARAM_MIP_Limits_CutsFactor=8
CPXPARAM_MIP_Limits_GomoryCand=150
CPXPARAM_MIP_Limits_GomoryPass=0
CPXPARAM_MIP_Limits_Nodes=9223372036800000000
CPXPARAM_MIP_Limits_ProbeTime=1e+75
CPXPARAM_MIP_Limits_RepairTries=0
CPXPARAM_MIP_Limits_StrongCand=10
CPXPARAM_MIP_Limits_StrongIt=0
CPXPARAM_MIP_OrderType=0
CPXPARAM_MIP_Strategy_BBInterval=7
CPXPARAM_MIP_Strategy_Branch=0
CPXPARAM_MIP_Strategy_Dive=0
CPXPARAM_MIP_Strategy_File=1
CPXPARAM_MIP_Strategy_HeuristicFreq=0
CPXPARAM_MIP_Strategy_LBHeur=0
CPXPARAM_MIP_Strategy_NodeSelect=1
CPXPARAM_MIP_Strategy_Order=1
CPXPARAM_MIP_Strategy_PresolveNode=0
CPXPARAM_MIP_Strategy_Probe=0
CPXPARAM_MIP_Strategy_RINSHeur=0
CPXPARAM_MIP_Strategy_StartAlgorithm=0
CPXPARAM_MIP_Strategy_SubAlgorithm=0
CPXPARAM_MIP_Strategy_VariableSelect=0
CPXPARAM_Network_NetFind=2
CPXPARAM_Network_Pricing=0
CPXPARAM_Parallel=1
CPXPARAM_Preprocessing_Aggregator=-1
CPXPARAM_Preprocessing_BoundStrength=-1
CPXPARAM_Preprocessing_CoeffReduce=-1
CPXPARAM_Preprocessing_Dependency=-1
CPXPARAM_Preprocessing_Dual=0
CPXPARAM_Preprocessing_Fill=10
CPXPARAM_Preprocessing_NumPass=-1
CPXPARAM_Preprocessing_Presolve=1
CPXPARAM_Preprocessing_QPMakePSD=1
CPXPARAM_Preprocessing_Reduce=3
CPXPARAM_Preprocessing_Relax=-1
CPXPARAM_Preprocessing_RepeatPresolve=-1
CPXPARAM_Preprocessing_Symmetry=0
CPXPARAM_Read_Scale=0
CPXPARAM_Sifting_Algorithm=0
CPXPARAM_Simplex_Crash=1
CPXPARAM_Simplex_DGradient=0
CPXPARAM_Simplex_Limits_Perturbation=0
CPXPARAM_Simplex_Limits_Singularity=10
CPXPARAM_Simplex_PGradient=0
CPXPARAM_Simplex_Pricing=0
CPXPARAM_Simplex_Refactor=0
ObjectiveValue=53.7
Gap=53.7
UpperBound=1.9305e+06
LowerBound=893870
SolverRuntimeSeconds=5.011
SolverTerminationStatus=Normal
TimeEvaluated=177
MipStartUsed=0
ProducedMipStart=0
EndConfiguration
Configuration:
CPXPARAM_Advance=1
CPXPARAM_Barrier_Algorithm=0
CPXPARAM_Barrier_ColNonzeros=0
CPXPARAM_Barrier_Crossover=0
CPXPARAM_Barrier_Limits_Corrections=-1
CPXPARAM_Barrier_Ordering=0
CPXPARAM_Barrier_StartAlg=1
CPXPARAM_Emphasis_MIP=5
CPXPARAM_Emphasis_Memory=0
CPXPARAM_Emphasis_Numerical=0
CPXPARAM_Feasopt_Mode=0
CPXPARAM_LPMethod=0
CPXPARAM_MIP_Cuts_Cliques=0
CPXPARAM_MIP_Cuts_Covers=3
CPXPARAM_MIP_Cuts_Disjunctive=3
CPXPARAM_MIP_Cuts_FlowCovers=2
CPXPARAM_MIP_Cuts_GUBCovers=0
CPXPARAM_MIP_Cuts_Gomory=0
CPXPARAM_MIP_Cuts_Implied=1
CPXPARAM_MIP_Cuts_MIRCut=1
CPXPARAM_MIP_Cuts_PathCut=2
CPXPARAM_MIP_Limits_AggForCut=3
CPXPARAM_MIP_Limits_CutPasses=0
CPXPARAM_MIP_Limits_CutsFactor=-1
CPXPARAM_MIP_Limits_GomoryCand=150
CPXPARAM_MIP_Limits_GomoryPass=0
CPXPARAM_MIP_Limits_Nodes=9223372036800000000
CPXPARAM_MIP_Limits_ProbeTime=1e+75
CPXPARAM_MIP_Limits_RepairTries=0
CPXPARAM_MIP_Limits_StrongCand=10
CPXPARAM_MIP_Limits_StrongIt=0
CPXPARAM_MIP_OrderType=0
CPXPARAM_MIP_Strategy_BBInterval=7
CPXPARAM_MIP_Strategy_Branch=0
CPXPARAM_MIP_Strategy_Dive=0
CPXPARAM_MIP_Strategy_File=1
CPXPARAM_MIP_Strategy_HeuristicFreq=0
CPXPARAM_MIP_Strategy_LBHeur=0
CPXPARAM_MIP_Strategy_NodeSelect=1
CPXPARAM_MIP_Strategy_Order=1
CPXPARAM_MIP_Strategy_PresolveNode=0
CPXPARAM_MIP_Strategy_Probe=0
CPXPARAM_MIP_Strategy_RINSHeur=0
CPXPARAM_MIP_Strategy_StartAlgorithm=0
CPXPARAM_MIP_Strategy_SubAlgorithm=0
CPXPARAM_MIP_Strategy_VariableSelect=0
CPXPARAM_Network_NetFind=2
CPXPARAM_Network_Pricing=0
CPXPARAM_Parallel=1
CPXPARAM_Preprocessing_Aggregator=-1
CPXPARAM_Preprocessing_BoundStrength=-1
CPXPARAM_Preprocessing_CoeffReduce=-1
CPXPARAM_Preprocessing_Dependency=-1
CPXPARAM_Preprocessing_Dual=0
CPXPARAM_Preprocessing_Fill=10
CPXPARAM_Preprocessing_NumPass=-1
CPXPARAM_Preprocessing_Presolve=1
CPXPARAM_Preprocessing_QPMakePSD=1
CPXPARAM_Preprocessing_Reduce=3
CPXPARAM_Preprocessing_Relax=-1
CPXPARAM_Preprocessing_RepeatPresolve=-1
CPXPARAM_Preprocessing_Symmetry=0
CPXPARAM_Read_Scale=0
CPXPARAM_Sifting_Algorithm=0
CPXPARAM_Simplex_Crash=1
CPXPARAM_Simplex_DGradient=0
CPXPARAM_Simplex_Limits_Perturbation=0
CPXPARAM_Simplex_Limits_Singularity=10
CPXPARAM_Simplex_PGradient=0
CPXPARAM_Simplex_Pricing=0
CPXPARAM_Simplex_Refactor=0
ObjectiveValue=53.7
Gap=53.7
UpperBound=1.9305e+06
LowerBound=893870
SolverRuntimeSeconds=5.01203
SolverTerminationStatus=Normal
TimeEvaluated=182
MipStartUsed=0
ProducedMipStart=0
EndConfiguration
Configuration:
CPXPARAM_Advance=1
CPXPARAM_Barrier_Algorithm=0
CPXPARAM_Barrier_ColNonzeros=0
CPXPARAM_Barrier_Crossover=0
CPXPARAM_Barrier_Limits_Corrections=-1
CPXPARAM_Barrier_Ordering=0
CPXPARAM_Barrier_StartAlg=1
CPXPARAM_Emphasis_MIP=4
CPXPARAM_Emphasis_Memory=0
CPXPARAM_Emphasis_Numerical=0
CPXPARAM_Feasopt_Mode=0
CPXPARAM_LPMethod=0
CPXPARAM_MIP_Cuts_Cliques=0
CPXPARAM_MIP_Cuts_Covers=0
CPXPARAM_MIP_Cuts_Disjunctive=3
CPXPARAM_MIP_Cuts_FlowCovers=2
CPXPARAM_MIP_Cuts_GUBCovers=0
CPXPARAM_MIP_Cuts_Gomory=0
CPXPARAM_MIP_Cuts_Implied=1
CPXPARAM_MIP_Cuts_MIRCut=1
CPXPARAM_MIP_Cuts_PathCut=2
CPXPARAM_MIP_Limits_AggForCut=3
CPXPARAM_MIP_Limits_CutPasses=0
CPXPARAM_MIP_Limits_CutsFactor=-1
CPXPARAM_MIP_Limits_GomoryCand=150
CPXPARAM_MIP_Limits_GomoryPass=0
CPXPARAM_MIP_Limits_Nodes=9223372036800000000
CPXPARAM_MIP_Limits_ProbeTime=1e+75
CPXPARAM_MIP_Limits_RepairTries=0
CPXPARAM_MIP_Limits_StrongCand=10
CPXPARAM_MIP_Limits_StrongIt=0
CPXPARAM_MIP_OrderType=0
CPXPARAM_MIP_Strategy_BBInterval=7
CPXPARAM_MIP_Strategy_Branch=0
CPXPARAM_MIP_Strategy_Dive=0
CPXPARAM_MIP_Strategy_File=1
CPXPARAM_MIP_Strategy_HeuristicFreq=0
CPXPARAM_MIP_Strategy_LBHeur=0
CPXPARAM_MIP_Strategy_NodeSelect=1
CPXPARAM_MIP_Strategy_Order=1
CPXPARAM_MIP_Strategy_PresolveNode=0
CPXPARAM_MIP_Strategy_Probe=0
CPXPARAM_MIP_Strategy_RINSHeur=0
CPXPARAM_MIP_Strategy_StartAlgorithm=0
CPXPARAM_MIP_Strategy_SubAlgorithm=0
CPXPARAM_MIP_Strategy_VariableSelect=0
CPXPARAM_Network_NetFind=2
CPXPARAM_Network_Pricing=0
CPXPARAM_Parallel=1
CPXPARAM_Preprocessing_Aggregator=-1
CPXPARAM_Preprocessing_BoundStrength=-1
CPXPARAM_Preprocessing_CoeffReduce=-1
CPXPARAM_Preprocessing_Dependency=-1
CPXPARAM_Preprocessing_Dual=0
CPXPARAM_Preprocessing_Fill=10
CPXPARAM_Preprocessing_NumPass=-1
CPXPARAM_Preprocessing_Presolve=1
CPXPARAM_Preprocessing_QPMakePSD=1
CPXPARAM_Preprocessing_Reduce=3
CPXPARAM_Preprocessing_Relax=-1
CPXPARAM_Preprocessing_RepeatPresolve=-1
CPXPARAM_Preprocessing_Symmetry=0
CPXPARAM_Read_Scale=0
CPXPARAM_Sifting_Algorithm=0
CPXPARAM_Simplex_Crash=1
CPXPARAM_Simplex_DGradient=0
CPXPARAM_Simplex_Limits_Perturbation=0
CPXPARAM_Simplex_Limits_Singularity=10
CPXPARAM_Simplex_PGradient=0
CPXPARAM_Simplex_Pricing=0
CPXPARAM_Simplex_Refactor=0
ObjectiveValue=53.66
Gap=53.66
UpperBound=1.93782e+06
LowerBound=897998
SolverRuntimeSeconds=5.01098
SolverTerminationStatus=Normal
TimeEvaluated=187
MipStartUsed=0
ProducedMipStart=0
EndConfiguration
Configuration:
CPXPARAM_Advance=1
CPXPARAM_Barrier_Algorithm=0
CPXPARAM_Barrier_ColNonzeros=0
CPXPARAM_Barrier_Crossover=0
CPXPARAM_Barrier_Limits_Corrections=-1
CPXPARAM_Barrier_Ordering=0
CPXPARAM_Barrier_StartAlg=1
CPXPARAM_Emphasis_MIP=4
CPXPARAM_Emphasis_Memory=0
CPXPARAM_Emphasis_Numerical=0
CPXPARAM_Feasopt_Mode=0
CPXPARAM_LPMethod=0
CPXPARAM_MIP_Cuts_Cliques=0
CPXPARAM_MIP_Cuts_Covers=0
CPXPARAM_MIP_Cuts_Disjunctive=3
CPXPARAM_MIP_Cuts_FlowCovers=2
CPXPARAM_MIP_Cuts_GUBCovers=0
CPXPARAM_MIP_Cuts_Gomory=0
CPXPARAM_MIP_Cuts_Implied=2
CPXPARAM_MIP_Cuts_MIRCut=1
CPXPARAM_MIP_Cuts_PathCut=2
CPXPARAM_MIP_Limits_AggForCut=3
CPXPARAM_MIP_Limits_CutPasses=0
CPXPARAM_MIP_Limits_CutsFactor=-1
CPXPARAM_MIP_Limits_GomoryCand=150
CPXPARAM_MIP_Limits_GomoryPass=0
CPXPARAM_MIP_Limits_Nodes=9223372036800000000
CPXPARAM_MIP_Limits_ProbeTime=1e+75
CPXPARAM_MIP_Limits_RepairTries=0
CPXPARAM_MIP_Limits_StrongCand=10
CPXPARAM_MIP_Limits_StrongIt=0
CPXPARAM_MIP_OrderType=0
CPXPARAM_MIP_Strategy_BBInterval=7
CPXPARAM_MIP_Strategy_Branch=0
CPXPARAM_MIP_Strategy_Dive=0
CPXPARAM_MIP_Strategy_File=1
CPXPARAM_MIP_Strategy_HeuristicFreq=0
CPXPARAM_MIP_Strategy_LBHeur=0
CPXPARAM_MIP_Strategy_NodeSelect=1
CPXPARAM_MIP_Strategy_Order=1
CPXPARAM_MIP_Strategy_PresolveNode=0
CPXPARAM_MIP_Strategy_Probe=0
CPXPARAM_MIP_Strategy_RINSHeur=0
CPXPARAM_MIP_Strategy_StartAlgorithm=0
CPXPARAM_MIP_Strategy_SubAlgorithm=0
CPXPARAM_MIP_Strategy_VariableSelect=0
CPXPARAM_Network_NetFind=2
CPXPARAM_Network_Pricing=0
CPXPARAM_Parallel=1
CPXPARAM_Preprocessing_Aggregator=-1
CPXPARAM_Preprocessing_BoundStrength=-1
CPXPARAM_Preprocessing_CoeffReduce=-1
CPXPARAM_Preprocessing_Dependency=-1
CPXPARAM_Preprocessing_Dual=0
CPXPARAM_Preprocessing_Fill=10
CPXPARAM_Preprocessing_NumPass=-1
CPXPARAM_Preprocessing_Presolve=1
CPXPARAM_Preprocessing_QPMakePSD=1
CPXPARAM_Preprocessing_Reduce=3
CPXPARAM_Preprocessing_Relax=-1
CPXPARAM_Preprocessing_RepeatPresolve=-1
CPXPARAM_Preprocessing_Symmetry=0
CPXPARAM_Read_Scale=0
CPXPARAM_Sifting_Algorithm=0
CPXPARAM_Simplex_Crash=1
CPXPARAM_Simplex_DGradient=0
CPXPARAM_Simplex_Limits_Perturbation=0
CPXPARAM_Simplex_Limits_Singularity=10
CPXPARAM_Simplex_PGradient=0
CPXPARAM_Simplex_Pricing=0
CPXPARAM_Simplex_Refactor=0
ObjectiveValue=53.66
Gap=53.66
UpperBound=1.93782e+06
LowerBound=897998
SolverRuntimeSeconds=5.01076
SolverTerminationStatus=Normal
TimeEvaluated=192
MipStartUsed=0
ProducedMipStart=0
EndConfiguration
Configuration:
CPXPARAM_Advance=1
CPXPARAM_Barrier_Algorithm=0
CPXPARAM_Barrier_ColNonzeros=0
CPXPARAM_Barrier_Crossover=0
CPXPARAM_Barrier_Limits_Corrections=-1
CPXPARAM_Barrier_Ordering=0
CPXPARAM_Barrier_StartAlg=1
CPXPARAM_Emphasis_MIP=4
CPXPARAM_Emphasis_Memory=0
CPXPARAM_Emphasis_Numerical=0
CPXPARAM_Feasopt_Mode=0
CPXPARAM_LPMethod=0
CPXPARAM_MIP_Cuts_Cliques=1
CPXPARAM_MIP_Cuts_Covers=0
CPXPARAM_MIP_Cuts_Disjunctive=3
CPXPARAM_MIP_Cuts_FlowCovers=2
CPXPARAM_MIP_Cuts_GUBCovers=0
CPXPARAM_MIP_Cuts_Gomory=0
CPXPARAM_MIP_Cuts_Implied=1
CPXPARAM_MIP_Cuts_MIRCut=1
CPXPARAM_MIP_Cuts_PathCut=2
CPXPARAM_MIP_Limits_AggForCut=3
CPXPARAM_MIP_Limits_CutPasses=0
CPXPARAM_MIP_Limits_CutsFactor=-1
CPXPARAM_MIP_Limits_GomoryCand=150
CPXPARAM_MIP_Limits_GomoryPass=0
CPXPARAM_MIP_Limits_Nodes=9223372036800000000
CPXPARAM_MIP_Limits_ProbeTime=1e+75
CPXPARAM_MIP_Limits_RepairTries=0
CPXPARAM_MIP_Limits_StrongCand=10
CPXPARAM_MIP_Limits_StrongIt=0
CPXPARAM_MIP_OrderType=0
CPXPARAM_MIP_Strategy_BBInterval=7
CPXPARAM_MIP_Strategy_Branch=0
CPXPARAM_MIP_Strategy_Dive=0
CPXPARAM_MIP_Strategy_File=1
CPXPARAM_MIP_Strategy_HeuristicFreq=0
CPXPARAM_MIP_Strategy_LBHeur=0
CPXPARAM_MIP_Strategy_NodeSelect=1
CPXPARAM_MIP_Strategy_Order=1
CPXPARAM_MIP_Strategy_PresolveNode=0
CPXPARAM_MIP_Strategy_Probe=0
CPXPARAM_MIP_Strategy_RINSHeur=0
CPXPARAM_MIP_Strategy_StartAlgorithm=0
CPXPARAM_MIP_Strategy_SubAlgorithm=0
CPXPARAM_MIP_Strategy_VariableSelect=0
CPXPARAM_Network_NetFind=2
CPXPARAM_Network_Pricing=0
CPXPARAM_Parallel=1
CPXPARAM_Preprocessing_Aggregator=-1
CPXPARAM_Preprocessing_BoundStrength=-1
CPXPARAM_Preprocessing_CoeffReduce=-1
CPXPARAM_Preprocessing_Dependency=-1
CPXPARAM_Preprocessing_Dual=0
CPXPARAM_Preprocessing_Fill=10
CPXPARAM_Preprocessing_NumPass=-1
CPXPARAM_Preprocessing_Presolve=1
CPXPARAM_Preprocessing_QPMakePSD=1
CPXPARAM_Preprocessing_Reduce=3
CPXPARAM_Preprocessing_Relax=-1
CPXPARAM_Preprocessing_RepeatPresolve=-1
CPXPARAM_Preprocessing_Symmetry=0
CPXPARAM_Read_Scale=0
CPXPARAM_Sifting_Algorithm=0
CPXPARAM_Simplex_Crash=1
CPXPARAM_Simplex_DGradient=0
CPXPARAM_Simplex_Limits_Perturbation=0
CPXPARAM_Simplex_Limits_Singularity=10
CPXPARAM_Simplex_PGradient=0
CPXPARAM_Simplex_Pricing=0
CPXPARAM_Simplex_Refactor=0
ObjectiveValue=53.66
Gap=53.66
UpperBound=1.93782e+06
LowerBound=897998
SolverRuntimeSeconds=5.00998
SolverTerminationStatus=Normal
TimeEvaluated=197
MipStartUsed=0
ProducedMipStart=0
EndConfiguration
Configuration:
CPXPARAM_Advance=1
CPXPARAM_Barrier_Algorithm=0
CPXPARAM_Barrier_ColNonzeros=0
CPXPARAM_Barrier_Crossover=0
CPXPARAM_Barrier_Limits_Corrections=-1
CPXPARAM_Barrier_Ordering=0
CPXPARAM_Barrier_StartAlg=1
CPXPARAM_Emphasis_MIP=4
CPXPARAM_Emphasis_Memory=0
CPXPARAM_Emphasis_Numerical=0
CPXPARAM_Feasopt_Mode=0
CPXPARAM_LPMethod=0
CPXPARAM_MIP_Cuts_Cliques=0
CPXPARAM_MIP_Cuts_Covers=0
CPXPARAM_MIP_Cuts_Disjunctive=3
CPXPARAM_MIP_Cuts_FlowCovers=2
CPXPARAM_MIP_Cuts_GUBCovers=0
CPXPARAM_MIP_Cuts_Gomory=0
CPXPARAM_MIP_Cuts_Implied=1
CPXPARAM_MIP_Cuts_MIRCut=0
CPXPARAM_MIP_Cuts_PathCut=2
CPXPARAM_MIP_Limits_AggForCut=3
CPXPARAM_MIP_Limits_CutPasses=0
CPXPARAM_MIP_Limits_CutsFactor=-1
CPXPARAM_MIP_Limits_GomoryCand=150
CPXPARAM_MIP_Limits_GomoryPass=0
CPXPARAM_MIP_Limits_Nodes=9223372036800000000
CPXPARAM_MIP_Limits_ProbeTime=1e+75
CPXPARAM_MIP_Limits_RepairTries=0
CPXPARAM_MIP_Limits_StrongCand=10
CPXPARAM_MIP_Limits_StrongIt=0
CPXPARAM_MIP_OrderType=0
CPXPARAM_MIP_Strategy_BBInterval=7
CPXPARAM_MIP_Strategy_Branch=0
CPXPARAM_MIP_Strategy_Dive=0
CPXPARAM_MIP_Strategy_File=1
CPXPARAM_MIP_Strategy_HeuristicFreq=0
CPXPARAM_MIP_Strategy_LBHeur=0
CPXPARAM_MIP_Strategy_NodeSelect=1
CPXPARAM_MIP_Strategy_Order=1
CPXPARAM_MIP_Strategy_PresolveNode=0
CPXPARAM_MIP_Strategy_Probe=0
CPXPARAM_MIP_Strategy_RINSHeur=0
CPXPARAM_MIP_Strategy_StartAlgorithm=0
CPXPARAM_MIP_Strategy_SubAlgorithm=0
CPXPARAM_MIP_Strategy_VariableSelect=0
CPXPARAM_Network_NetFind=2
CPXPARAM_Network_Pricing=0
CPXPARAM_Parallel=1
CPXPARAM_Preprocessing_Aggregator=-1
CPXPARAM_Preprocessing_BoundStrength=-1
CPXPARAM_Preprocessing_CoeffReduce=-1
CPXPARAM_Preprocessing_Dependency=-1
CPXPARAM_Preprocessing_Dual=0
CPXPARAM_Preprocessing_Fill=10
CPXPARAM_Preprocessing_NumPass=-1
CPXPARAM_Preprocessing_Presolve=1
CPXPARAM_Preprocessing_QPMakePSD=1
CPXPARAM_Preprocessing_Reduce=3
CPXPARAM_Preprocessing_Relax=-1
CPXPARAM_Preprocessing_RepeatPresolve=-1
CPXPARAM_Preprocessing_Symmetry=0
CPXPARAM_Read_Scale=0
CPXPARAM_Sifting_Algorithm=0
CPXPARAM_Simplex_Crash=1
CPXPARAM_Simplex_DGradient=0
CPXPARAM_Simplex_Limits_Perturbation=0
CPXPARAM_Simplex_Limits_Singularity=10
CPXPARAM_Simplex_PGradient=0
CPXPARAM_Simplex_Pricing=0
CPXPARAM_Simplex_Refactor=0
ObjectiveValue=53.58
Gap=53.58
UpperBound=1.93782e+06
LowerBound=899449
SolverRuntimeSeconds=5.01038
SolverTerminationStatus=Normal
TimeEvaluated=202
MipStartUsed=0
ProducedMipStart=0
EndConfiguration
Configuration:
CPXPARAM_Advance=1
CPXPARAM_Barrier_Algorithm=0
CPXPARAM_Barrier_ColNonzeros=0
CPXPARAM_Barrier_Crossover=0
CPXPARAM_Barrier_Limits_Corrections=-1
CPXPARAM_Barrier_Ordering=0
CPXPARAM_Barrier_StartAlg=1
CPXPARAM_Emphasis_MIP=4
CPXPARAM_Emphasis_Memory=0
CPXPARAM_Emphasis_Numerical=0
CPXPARAM_Feasopt_Mode=0
CPXPARAM_LPMethod=0
CPXPARAM_MIP_Cuts_Cliques=0
CPXPARAM_MIP_Cuts_Covers=3
CPXPARAM_MIP_Cuts_Disjunctive=3
CPXPARAM_MIP_Cuts_FlowCovers=2
CPXPARAM_MIP_Cuts_GUBCovers=0
CPXPARAM_MIP_Cuts_Gomory=0
CPXPARAM_MIP_Cuts_Implied=1
CPXPARAM_MIP_Cuts_MIRCut=0
CPXPARAM_MIP_Cuts_PathCut=2
CPXPARAM_MIP_Limits_AggForCut=3
CPXPARAM_MIP_Limits_CutPasses=0
CPXPARAM_MIP_Limits_CutsFactor=-1
CPXPARAM_MIP_Limits_GomoryCand=150
CPXPARAM_MIP_Limits_GomoryPass=0
CPXPARAM_MIP_Limits_Nodes=9223372036800000000
CPXPARAM_MIP_Limits_ProbeTime=1e+75
CPXPARAM_MIP_Limits_RepairTries=0
CPXPARAM_MIP_Limits_StrongCand=10
CPXPARAM_MIP_Limits_StrongIt=0
CPXPARAM_MIP_OrderType=0
CPXPARAM_MIP_Strategy_BBInterval=7
CPXPARAM_MIP_Strategy_Branch=0
CPXPARAM_MIP_Strategy_Dive=0
CPXPARAM_MIP_Strategy_File=1
CPXPARAM_MIP_Strategy_HeuristicFreq=0
CPXPARAM_MIP_Strategy_LBHeur=0
CPXPARAM_MIP_Strategy_NodeSelect=1
CPXPARAM_MIP_Strategy_Order=1
CPXPARAM_MIP_Strategy_PresolveNode=0
CPXPARAM_MIP_Strategy_Probe=0
CPXPARAM_MIP_Strategy_RINSHeur=0
CPXPARAM_MIP_Strategy_StartAlgorithm=0
CPXPARAM_MIP_Strategy_SubAlgorithm=0
CPXPARAM_MIP_Strategy_VariableSelect=0
CPXPARAM_Network_NetFind=2
CPXPARAM_Network_Pricing=0
CPXPARAM_Parallel=1
CPXPARAM_Preprocessing_Aggregator=-1
CPXPARAM_Preprocessing_BoundStrength=-1
CPXPARAM_Preprocessing_CoeffReduce=-1
CPXPARAM_Preprocessing_Dependency=-1
CPXPARAM_Preprocessing_Dual=0
CPXPARAM_Preprocessing_Fill=10
CPXPARAM_Preprocessing_NumPass=-1
CPXPARAM_Preprocessing_Presolve=1
CPXPARAM_Preprocessing_QPMakePSD=1
CPXPARAM_Preprocessing_Reduce=3
CPXPARAM_Preprocessing_Relax=-1
CPXPARAM_Preprocessing_RepeatPresolve=-1
CPXPARAM_Preprocessing_Symmetry=0
CPXPARAM_Read_Scale=0
CPXPARAM_Sifting_Algorithm=0
CPXPARAM_Simplex_Crash=1
CPXPARAM_Simplex_DGradient=0
CPXPARAM_Simplex_Limits_Perturbation=0
CPXPARAM_Simplex_Limits_Singularity=10
CPXPARAM_Simplex_PGradient=0
CPXPARAM_Simplex_Pricing=0
CPXPARAM_Simplex_Refactor=0
ObjectiveValue=53.58
Gap=53.58
UpperBound=1.93782e+06
LowerBound=899449
SolverRuntimeSeconds=5.0111
SolverTerminationStatus=Normal
TimeEvaluated=207
MipStartUsed=0
ProducedMipStart=0
EndConfiguration
Configuration:
CPXPARAM_Advance=1
CPXPARAM_Barrier_Algorithm=0
CPXPARAM_Barrier_ColNonzeros=0
CPXPARAM_Barrier_Crossover=0
CPXPARAM_Barrier_Limits_Corrections=-1
CPXPARAM_Barrier_Ordering=0
CPXPARAM_Barrier_StartAlg=1
CPXPARAM_Emphasis_MIP=4
CPXPARAM_Emphasis_Memory=0
CPXPARAM_Emphasis_Numerical=0
CPXPARAM_Feasopt_Mode=0
CPXPARAM_LPMethod=0
CPXPARAM_MIP_Cuts_Cliques=0
CPXPARAM_MIP_Cuts_Covers=0
CPXPARAM_MIP_Cuts_Disjunctive=3
CPXPARAM_MIP_Cuts_FlowCovers=2
CPXPARAM_MIP_Cuts_GUBCovers=0
CPXPARAM_MIP_Cuts_Gomory=0
CPXPARAM_MIP_Cuts_Implied=1
CPXPARAM_MIP_Cuts_MIRCut=0
CPXPARAM_MIP_Cuts_PathCut=2
CPXPARAM_MIP_Limits_AggForCut=3
CPXPARAM_MIP_Limits_CutPasses=0
CPXPARAM_MIP_Limits_CutsFactor=2
CPXPARAM_MIP_Limits_GomoryCand=150
CPXPARAM_MIP_Limits_GomoryPass=0
CPXPARAM_MIP_Limits_Nodes=9223372036800000000
CPXPARAM_MIP_Limits_ProbeTime=1e+75
CPXPARAM_MIP_Limits_RepairTries=0
CPXPARAM_MIP_Limits_StrongCand=10
CPXPARAM_MIP_Limits_StrongIt=0
CPXPARAM_MIP_OrderType=0
CPXPARAM_MIP_Strategy_BBInterval=7
CPXPARAM_MIP_Strategy_Branch=0
CPXPARAM_MIP_Strategy_Dive=0
CPXPARAM_MIP_Strategy_File=1
CPXPARAM_MIP_Strategy_HeuristicFreq=0
CPXPARAM_MIP_Strategy_LBHeur=0
CPXPARAM_MIP_Strategy_NodeSelect=1
CPXPARAM_MIP_Strategy_Order=1
CPXPARAM_MIP_Strategy_PresolveNode=0
CPXPARAM_MIP_Strategy_Probe=0
CPXPARAM_MIP_Strategy_RINSHeur=0
CPXPARAM_MIP_Strategy_StartAlgorithm=0
CPXPARAM_MIP_Strategy_SubAlgorithm=0
CPXPARAM_MIP_Strategy_VariableSelect=0
CPXPARAM_Network_NetFind=2
CPXPARAM_Network_Pricing=0
CPXPARAM_Parallel=1
CPXPARAM_Preprocessing_Aggregator=-1
CPXPARAM_Preprocessing_BoundStrength=-1
CPXPARAM_Preprocessing_CoeffReduce=-1
CPXPARAM_Preprocessing_Dependency=-1
CPXPARAM_Preprocessing_Dual=0
CPXPARAM_Preprocessing_Fill=10
CPXPARAM_Preprocessing_NumPass=-1
CPXPARAM_Preprocessing_Presolve=1
CPXPARAM_Preprocessing_QPMakePSD=1
CPXPARAM_Preprocessing_Reduce=3
CPXPARAM_Preprocessing_Relax=-1
CPXPARAM_Preprocessing_RepeatPresolve=-1
CPXPARAM_Preprocessing_Symmetry=0
CPXPARAM_Read_Scale=0
CPXPARAM_Sifting_Algorithm=0
CPXPARAM_Simplex_Crash=1
CPXPARAM_Simplex_DGradient=0
CPXPARAM_Simplex_Limits_Perturbation=0
CPXPARAM_Simplex_Limits_Singularity=10
CPXPARAM_Simplex_PGradient=0
CPXPARAM_Simplex_Pricing=0
CPXPARAM_Simplex_Refactor=0
ObjectiveValue=53.78
Gap=53.78
UpperBound=1.94062e+06
LowerBound=897046
SolverRuntimeSeconds=5.00962
SolverTerminationStatus=Normal
TimeEvaluated=212
MipStartUsed=0
ProducedMipStart=0
EndConfiguration
Configuration:
CPXPARAM_Advance=1
CPXPARAM_Barrier_Algorithm=0
CPXPARAM_Barrier_ColNonzeros=0
CPXPARAM_Barrier_Crossover=0
CPXPARAM_Barrier_Limits_Corrections=-1
CPXPARAM_Barrier_Ordering=0
CPXPARAM_Barrier_StartAlg=1
CPXPARAM_Emphasis_MIP=4
CPXPARAM_Emphasis_Memory=0
CPXPARAM_Emphasis_Numerical=0
CPXPARAM_Feasopt_Mode=0
CPXPARAM_LPMethod=0
CPXPARAM_MIP_Cuts_Cliques=0
CPXPARAM_MIP_Cuts_Covers=1
CPXPARAM_MIP_Cuts_Disjunctive=3
CPXPARAM_MIP_Cuts_FlowCovers=2
CPXPARAM_MIP_Cuts_GUBCovers=0
CPXPARAM_MIP_Cuts_Gomory=0
CPXPARAM_MIP_Cuts_Implied=1
CPXPARAM_MIP_Cuts_MIRCut=0
CPXPARAM_MIP_Cuts_PathCut=2
CPXPARAM_MIP_Limits_AggForCut=3
CPXPARAM_MIP_Limits_CutPasses=0
CPXPARAM_MIP_Limits_CutsFactor=-1
CPXPARAM_MIP_Limits_GomoryCand=150
CPXPARAM_MIP_Limits_GomoryPass=0
CPXPARAM_MIP_Limits_Nodes=9223372036800000000
CPXPARAM_MIP_Limits_ProbeTime=1e+75
CPXPARAM_MIP_Limits_RepairTries=0
CPXPARAM_MIP_Limits_StrongCand=10
CPXPARAM_MIP_Limits_StrongIt=0
CPXPARAM_MIP_OrderType=0
CPXPARAM_MIP_Strategy_BBInterval=7
CPXPARAM_MIP_Strategy_Branch=0
CPXPARAM_MIP_Strategy_Dive=0
CPXPARAM_MIP_Strategy_File=1
CPXPARAM_MIP_Strategy_HeuristicFreq=0
CPXPARAM_MIP_Strategy_LBHeur=0
CPXPARAM_MIP_Strategy_NodeSelect=1
CPXPARAM_MIP_Strategy_Order=1
CPXPARAM_MIP_Strategy_PresolveNode=0
CPXPARAM_MIP_Strategy_Probe=0
CPXPARAM_MIP_Strategy_RINSHeur=0
CPXPARAM_MIP_Strategy_StartAlgorithm=0
CPXPARAM_MIP_Strategy_SubAlgorithm=0
CPXPARAM_MIP_Strategy_VariableSelect=0
CPXPARAM_Network_NetFind=2
CPXPARAM_Network_Pricing=0
CPXPARAM_Parallel=1
CPXPARAM_Preprocessing_Aggregator=-1
CPXPARAM_Preprocessing_BoundStrength=-1
CPXPARAM_Preprocessing_CoeffReduce=-1
CPXPARAM_Preprocessing_Dependency=-1
CPXPARAM_Preprocessing_Dual=0
CPXPARAM_Preprocessing_Fill=10
CPXPARAM_Preprocessing_NumPass=-1
CPXPARAM_Preprocessing_Presolve=1
CPXPARAM_Preprocessing_QPMakePSD=1
CPXPARAM_Preprocessing_Reduce=3
CPXPARAM_Preprocessing_Relax=-1
CPXPARAM_Preprocessing_RepeatPresolve=-1
CPXPARAM_Preprocessing_Symmetry=0
CPXPARAM_Read_Scale=0
CPXPARAM_Sifting_Algorithm=0
CPXPARAM_Simplex_Crash=1
CPXPARAM_Simplex_DGradient=0
CPXPARAM_Simplex_Limits_Perturbation=0
CPXPARAM_Simplex_Limits_Singularity=10
CPXPARAM_Simplex_PGradient=0
CPXPARAM_Simplex_Pricing=0
CPXPARAM_Simplex_Refactor=0
ObjectiveValue=53.58
Gap=53.58
UpperBound=1.93782e+06
LowerBound=899449
SolverRuntimeSeconds=5.01245
SolverTerminationStatus=Normal
TimeEvaluated=217
MipStartUsed=0
ProducedMipStart=0
EndConfiguration
Configuration:
CPXPARAM_Advance=1
CPXPARAM_Barrier_Algorithm=0
CPXPARAM_Barrier_ColNonzeros=0
CPXPARAM_Barrier_Crossover=0
CPXPARAM_Barrier_Limits_Corrections=-1
CPXPARAM_Barrier_Ordering=0
CPXPARAM_Barrier_StartAlg=1
CPXPARAM_Emphasis_MIP=4
CPXPARAM_Emphasis_Memory=0
CPXPARAM_Emphasis_Numerical=0
CPXPARAM_Feasopt_Mode=0
CPXPARAM_LPMethod=0
CPXPARAM_MIP_Cuts_Cliques=0
CPXPARAM_MIP_Cuts_Covers=0
CPXPARAM_MIP_Cuts_Disjunctive=3
CPXPARAM_MIP_Cuts_FlowCovers=2
CPXPARAM_MIP_Cuts_GUBCovers=0
CPXPARAM_MIP_Cuts_Gomory=0
CPXPARAM_MIP_Cuts_Implied=1
CPXPARAM_MIP_Cuts_MIRCut=0
CPXPARAM_MIP_Cuts_PathCut=2
CPXPARAM_MIP_Limits_AggForCut=3
CPXPARAM_MIP_Limits_CutPasses=0
CPXPARAM_MIP_Limits_CutsFactor=-1
CPXPARAM_MIP_Limits_GomoryCand=400
CPXPARAM_MIP_Limits_GomoryPass=0
CPXPARAM_MIP_Limits_Nodes=9223372036800000000
CPXPARAM_MIP_Limits_ProbeTime=1e+75
CPXPARAM_MIP_Limits_RepairTries=0
CPXPARAM_MIP_Limits_StrongCand=10
CPXPARAM_MIP_Limits_StrongIt=0
CPXPARAM_MIP_OrderType=0
CPXPARAM_MIP_Strategy_BBInterval=7
CPXPARAM_MIP_Strategy_Branch=0
CPXPARAM_MIP_Strategy_Dive=0
CPXPARAM_MIP_Strategy_File=1
CPXPARAM_MIP_Strategy_HeuristicFreq=0
CPXPARAM_MIP_Strategy_LBHeur=0
CPXPARAM_MIP_Strategy_NodeSelect=1
CPXPARAM_MIP_Strategy_Order=1
CPXPARAM_MIP_Strategy_PresolveNode=0
CPXPARAM_MIP_Strategy_Probe=0
CPXPARAM_MIP_Strategy_RINSHeur=0
CPXPARAM_MIP_Strategy_StartAlgorithm=0
CPXPARAM_MIP_Strategy_SubAlgorithm=0
CPXPARAM_MIP_Strategy_VariableSelect=0
CPXPARAM_Network_NetFind=2
CPXPARAM_Network_Pricing=0
CPXPARAM_Parallel=1
CPXPARAM_Preprocessing_Aggregator=-1
CPXPARAM_Preprocessing_BoundStrength=-1
CPXPARAM_Preprocessing_CoeffReduce=-1
CPXPARAM_Preprocessing_Dependency=-1
CPXPARAM_Preprocessing_Dual=0
CPXPARAM_Preprocessing_Fill=10
CPXPARAM_Preprocessing_NumPass=-1
CPXPARAM_Preprocessing_Presolve=1
CPXPARAM_Preprocessing_QPMakePSD=1
CPXPARAM_Preprocessing_Reduce=3
CPXPARAM_Preprocessing_Relax=-1
CPXPARAM_Preprocessing_RepeatPresolve=-1
CPXPARAM_Preprocessing_Symmetry=0
CPXPARAM_Read_Scale=0
CPXPARAM_Sifting_Algorithm=0
CPXPARAM_Simplex_Crash=1
CPXPARAM_Simplex_DGradient=0
CPXPARAM_Simplex_Limits_Perturbation=0
CPXPARAM_Simplex_Limits_Singularity=10
CPXPARAM_Simplex_PGradient=0
CPXPARAM_Simplex_Pricing=0
CPXPARAM_Simplex_Refactor=0
ObjectiveValue=56.53
Gap=56.53
UpperBound=1.94062e+06
LowerBound=843624
SolverRuntimeSeconds=5.00978
SolverTerminationStatus=Normal
TimeEvaluated=222
MipStartUsed=0
ProducedMipStart=0
EndConfiguration
Configuration:
CPXPARAM_Advance=1
CPXPARAM_Barrier_Algorithm=0
CPXPARAM_Barrier_ColNonzeros=0
CPXPARAM_Barrier_Crossover=0
CPXPARAM_Barrier_Limits_Corrections=-1
CPXPARAM_Barrier_Ordering=0
CPXPARAM_Barrier_StartAlg=1
CPXPARAM_Emphasis_MIP=4
CPXPARAM_Emphasis_Memory=0
CPXPARAM_Emphasis_Numerical=0
CPXPARAM_Feasopt_Mode=0
CPXPARAM_LPMethod=0
CPXPARAM_MIP_Cuts_Cliques=0
CPXPARAM_MIP_Cuts_Covers=0
CPXPARAM_MIP_Cuts_Disjunctive=3
CPXPARAM_MIP_Cuts_FlowCovers=2
CPXPARAM_MIP_Cuts_GUBCovers=0
CPXPARAM_MIP_Cuts_Gomory=0
CPXPARAM_MIP_Cuts_Implied=1
CPXPARAM_MIP_Cuts_MIRCut=0
CPXPARAM_MIP_Cuts_PathCut=2
CPXPARAM_MIP_Limits_AggForCut=3
CPXPARAM_MIP_Limits_CutPasses=0
CPXPARAM_MIP_Limits_CutsFactor=-1
CPXPARAM_MIP_Limits_GomoryCand=800
CPXPARAM_MIP_Limits_GomoryPass=0
CPXPARAM_MIP_Limits_Nodes=9223372036800000000
CPXPARAM_MIP_Limits_ProbeTime=1e+75
CPXPARAM_MIP_Limits_RepairTries=0
CPXPARAM_MIP_Limits_StrongCand=10
CPXPARAM_MIP_Limits_StrongIt=0
CPXPARAM_MIP_OrderType=0
CPXPARAM_MIP_Strategy_BBInterval=7
CPXPARAM_MIP_Strategy_Branch=0
CPXPARAM_MIP_Strategy_Dive=0
CPXPARAM_MIP_Strategy_File=1
CPXPARAM_MIP_Strategy_HeuristicFreq=0
CPXPARAM_MIP_Strategy_LBHeur=0
CPXPARAM_MIP_Strategy_NodeSelect=1
CPXPARAM_MIP_Strategy_Order=1
CPXPARAM_MIP_Strategy_PresolveNode=0
CPXPARAM_MIP_Strategy_Probe=0
CPXPARAM_MIP_Strategy_RINSHeur=0
CPXPARAM_MIP_Strategy_StartAlgorithm=0
CPXPARAM_MIP_Strategy_SubAlgorithm=0
CPXPARAM_MIP_Strategy_VariableSelect=0
CPXPARAM_Network_NetFind=2
CPXPARAM_Network_Pricing=0
CPXPARAM_Parallel=1
CPXPARAM_Preprocessing_Aggregator=-1
CPXPARAM_Preprocessing_BoundStrength=-1
CPXPARAM_Preprocessing_CoeffReduce=-1
CPXPARAM_Preprocessing_Dependency=-1
CPXPARAM_Preprocessing_Dual=0
CPXPARAM_Preprocessing_Fill=10
CPXPARAM_Preprocessing_NumPass=-1
CPXPARAM_Preprocessing_Presolve=1
CPXPARAM_Preprocessing_QPMakePSD=1
CPXPARAM_Preprocessing_Reduce=3
CPXPARAM_Preprocessing_Relax=-1
CPXPARAM_Preprocessing_RepeatPresolve=-1
CPXPARAM_Preprocessing_Symmetry=0
CPXPARAM_Read_Scale=0
CPXPARAM_Sifting_Algorithm=0
CPXPARAM_Simplex_Crash=1
CPXPARAM_Simplex_DGradient=0
CPXPARAM_Simplex_Limits_Perturbation=0
CPXPARAM_Simplex_Limits_Singularity=10
CPXPARAM_Simplex_PGradient=0
CPXPARAM_Simplex_Pricing=0
CPXPARAM_Simplex_Refactor=0
ObjectiveValue=56.81
Gap=56.81
UpperBound=1.94062e+06
LowerBound=838158
SolverRuntimeSeconds=5.01037
SolverTerminationStatus=Normal
TimeEvaluated=227
MipStartUsed=0
ProducedMipStart=0
EndConfiguration
